\ This file has been generated by DOcplex
\ ENCODING=ISO-8859-1
\Problem name: random_problem.lp

Minimize
 obj: - 3 x0 - x1 + 7 x2 + 8 x3 - 7 x4 + x5 + 4 x6 - 3 x7 + 5 x8 - x9 - 3 x10
      + 5 x11 - 4 x12 + 10 x13 + 10 x14 + 3 x15 - 8 x16 + 3 x17 - 10 x18 + 2 x19
      - 3 x20 - x21 + 10 x22 + 10 x23 + 8 x25 + 6 x26 + 5 x27 + x28 - 5 x29
      - 8 x30 - 10 x31 + 10 x32 + 10 x33 + 3 x34 + x35 + 7 x36 - x37 - 8 x38
      + 5 x39 + x40 + 9 x41 - 6 x42 - 9 x43 + 5 x44 + x45 + 4 x46 + 2 x47
      + 5 x48 + [ - 4 x0*x2 - 20 x0*x11 + 16 x0*x25 + 6 x0*x27 - 6 x0*x37
      + 16 x0*x39 + 14 x0*x41 + 10 x0*x46 + 10 x0*x47 + 2 x0*x49 + 2 x1*x4
      - 18 x1*x9 + 14 x1*x12 - 8 x1*x18 + 10 x1*x20 + 2 x1*x26 + 20 x1*x30
      - 10 x1*x40 - 16 x1*x43 - 18 x1*x47 - 10 x2*x5 - 4 x2*x10 + 2 x2*x13
      + 18 x2*x17 - 2 x2*x20 - 12 x2*x39 - 18 x2*x41 + 16 x2*x46 - 6 x2*x48
      - 16 x3*x5 - 18 x3*x10 + 10 x3*x13 + 16 x3*x27 + 4 x3*x30 + 16 x3*x31
      + 4 x3*x33 - 8 x3*x43 + 12 x3*x45 + 10 x3*x47 + 14 x4*x5 - 8 x4*x7
      + 18 x4*x13 + 8 x4*x14 - 12 x4*x15 + 10 x4*x19 + 8 x4*x40 - 16 x4*x43
      - 14 x4*x48 + 18 x5*x15 - 6 x5*x21 - 20 x5*x25 - 20 x5*x27 - 6 x5*x38
      - 12 x5*x48 + 12 x5*x49 + 2 x6*x12 + 2 x6*x16 - 20 x6*x22 + 18 x6*x24
      - 4 x6*x29 + 4 x6*x32 + 4 x6*x35 + 10 x6*x41 + 4 x6*x42 + 20 x6*x49
      - 12 x7*x8 + 12 x7*x15 + 4 x7*x16 + 8 x7*x19 - 10 x7*x20 - 8 x7*x23
      - 6 x7*x25 - 2 x7*x43 + 8 x7*x45 - 12 x8*x23 - 12 x8*x26 - 14 x8*x28
      - 10 x8*x31 + 18 x8*x33 - 8 x8*x34 - 12 x8*x37 + 8 x8*x38 - 10 x8*x46
      - 10 x9*x11 + 14 x9*x23 - 16 x9*x26 - 14 x9*x28 - 16 x9*x31 + 6 x9*x40
      + 2 x9*x42 - 14 x9*x47 + 10 x9*x49 - 18 x10*x15 + 12 x10*x21 + 18 x10*x23
      - 4 x10*x24 + 6 x10*x32 - 4 x10*x37 + 2 x10*x41 + 18 x10*x42 + 8 x11*x12
      - 6 x11*x16 + 14 x11*x21 - 12 x11*x22 + 2 x11*x26 + 12 x11*x38 + 6 x11*x41
      + 16 x11*x44 - 8 x12*x16 + 10 x12*x28 + 12 x12*x31 + 14 x12*x32
      - 16 x12*x39 - 20 x12*x41 - 14 x12*x42 + 14 x13*x16 - 2 x13*x17
      - 10 x13*x19 + 14 x13*x20 + 4 x13*x24 + 18 x13*x38 - 2 x13*x47 + 8 x14*x25
      + 8 x14*x27 - 6 x14*x34 - 8 x14*x35 - 12 x14*x37 + 12 x14*x40 - 20 x14*x41
      - 18 x14*x43 + 2 x14*x49 + 4 x15*x21 + 8 x15*x22 - 16 x15*x24 + 6 x15*x40
      + 10 x15*x42 - 10 x15*x46 - 8 x16*x24 - 4 x16*x30 - 12 x16*x34
      + 16 x16*x37 + 10 x16*x47 + 20 x17*x18 - 12 x17*x22 - 12 x17*x30
      + 10 x17*x35 + 18 x17*x37 + 12 x17*x42 + 12 x17*x43 - 14 x17*x48
      + 18 x18*x23 - 4 x18*x28 + 2 x18*x33 - 20 x18*x38 + 2 x18*x39 + 12 x18*x43
      + 12 x18*x44 + 6 x18*x49 - 2 x19*x21 + 16 x19*x24 - 18 x19*x26 - 4 x19*x36
      - 18 x19*x37 - 6 x19*x39 - 2 x19*x42 - 14 x20*x22 + 12 x20*x26 + 6 x20*x27
      + 4 x20*x29 - 18 x20*x30 + 2 x20*x44 - 14 x21*x25 + 2 x21*x32 - 18 x21*x35
      - 2 x21*x36 + 12 x21*x41 + 20 x22*x23 + 10 x22*x28 + 20 x22*x29
      - 14 x22*x38 + 16 x22*x40 - 18 x23*x30 - 4 x23*x32 + 8 x23*x34
      - 10 x23*x39 - 18 x24*x25 - 8 x24*x28 + 4 x24*x29 + 6 x24*x47 + 6 x25*x26
      + 10 x25*x37 - 2 x25*x44 - 2 x25*x49 + 2 x26*x28 - 4 x26*x36 + 8 x26*x44
      - 2 x27*x28 + 20 x27*x35 - 20 x27*x43 - 20 x27*x45 + 14 x27*x46
      - 14 x28*x47 - 4 x28*x48 + 18 x29*x32 + 10 x29*x34 + 10 x29*x36
      + 4 x29*x45 - 6 x29*x46 + 20 x29*x49 - 14 x30*x33 - 10 x30*x34 - 8 x30*x39
      + 10 x30*x46 - 18 x31*x33 - 4 x31*x34 + 14 x31*x40 + 14 x31*x43
      - 6 x31*x44 + 12 x31*x48 - 8 x32*x37 + 18 x32*x39 - 14 x32*x44 - 6 x32*x45
      + 6 x33*x34 - 4 x33*x35 + 2 x33*x40 - 6 x33*x44 - 16 x33*x49 + 10 x34*x40
      + 16 x34*x41 + 20 x35*x36 + 2 x35*x38 - 6 x35*x45 + 2 x35*x48 - 8 x36*x40
      + 12 x36*x41 - 2 x36*x42 - 16 x36*x44 - 14 x36*x48 + 12 x37*x44
      + 6 x38*x39 + 20 x38*x42 - 14 x38*x46 + 6 x39*x49 - 14 x42*x48 + 8 x43*x47
      + 4 x45*x46 - 16 x45*x47 + 12 x45*x48 ]/2
Subject To
 c0: - x6 + 2 x11 + x25 + x30 - 2 x33 + x34 + 2 x37 - x38 - x40 + 2 x41 = 0
 c1: x3 + 2 x9 + 2 x11 + x14 - x19 + 2 x24 + 2 x31 + 2 x33 + 2 x39 - x45 = 1
 c2: - x1 + x11 + x13 + 2 x14 + x16 - x22 + 2 x23 - x32 + x43 + x49 = -2
 c3: x0 + x4 - x7 - 2 x12 - 2 x16 + 2 x19 - 2 x28 + 2 x36 - x40 - 2 x45 = 0
 c4: - 2 x7 - x12 + x18 - 2 x20 + 2 x24 - 2 x30 - 2 x34 - x39 + x47 - 2 x48 = 
     -1
 c5: x7 + x8 - x10 + x21 + 2 x24 - 2 x25 - 2 x28 - 2 x29 - x32 + 2 x40 = 1
 c6: - 2 x11 + 2 x17 + 2 x20 + 2 x24 + 2 x27 + 2 x28 + x31 - 2 x36 - x43 + x45
      = -1
 c7: - 2 x4 + 2 x5 + x7 - x14 - x15 + 2 x21 + 2 x25 - 2 x33 + x37 + x47 = 0
 c8: - 2 x1 - x3 - x4 - 2 x13 + x20 - 2 x23 - 2 x29 + 2 x36 - 2 x41 - x46 = -2
 c9: x1 - x8 + x9 + x11 + x14 + 2 x19 + 2 x21 + x26 + 2 x41 + x47 = 1

Bounds
 0 <= x0 <= 1
 0 <= x1 <= 1
 0 <= x2 <= 1
 0 <= x3 <= 1
 0 <= x4 <= 1
 0 <= x5 <= 1
 0 <= x6 <= 1
 0 <= x7 <= 1
 0 <= x8 <= 1
 0 <= x9 <= 1
 0 <= x10 <= 1
 0 <= x11 <= 1
 0 <= x12 <= 1
 0 <= x13 <= 1
 0 <= x14 <= 1
 0 <= x15 <= 1
 0 <= x16 <= 1
 0 <= x17 <= 1
 0 <= x18 <= 1
 0 <= x19 <= 1
 0 <= x20 <= 1
 0 <= x21 <= 1
 0 <= x22 <= 1
 0 <= x23 <= 1
 0 <= x24 <= 1
 0 <= x25 <= 1
 0 <= x26 <= 1
 0 <= x27 <= 1
 0 <= x28 <= 1
 0 <= x29 <= 1
 0 <= x30 <= 1
 0 <= x31 <= 1
 0 <= x32 <= 1
 0 <= x33 <= 1
 0 <= x34 <= 1
 0 <= x35 <= 1
 0 <= x36 <= 1
 0 <= x37 <= 1
 0 <= x38 <= 1
 0 <= x39 <= 1
 0 <= x40 <= 1
 0 <= x41 <= 1
 0 <= x42 <= 1
 0 <= x43 <= 1
 0 <= x44 <= 1
 0 <= x45 <= 1
 0 <= x46 <= 1
 0 <= x47 <= 1
 0 <= x48 <= 1
 0 <= x49 <= 1

Binaries
 x0 x1 x2 x3 x4 x5 x6 x7 x8 x9 x10 x11 x12 x13 x14 x15 x16 x17 x18 x19 x20 x21
 x22 x23 x24 x25 x26 x27 x28 x29 x30 x31 x32 x33 x34 x35 x36 x37 x38 x39 x40 x41
 x42 x43 x44 x45 x46 x47 x48 x49
End
